presolving:
(round 1, fast)       6372 del vars, 37001 del conss, 0 add conss, 7949 chg bounds, 0 chg sides, 0 chg coeffs, 0 upgd conss, 0 impls, 1041 clqs
(round 2, fast)       6549 del vars, 37001 del conss, 0 add conss, 10989 chg bounds, 0 chg sides, 0 chg coeffs, 0 upgd conss, 0 impls, 1041 clqs
(round 3, fast)       8069 del vars, 38521 del conss, 0 add conss, 10989 chg bounds, 0 chg sides, 0 chg coeffs, 0 upgd conss, 0 impls, 1041 clqs
(round 4, fast)       9589 del vars, 38521 del conss, 0 add conss, 10989 chg bounds, 0 chg sides, 0 chg coeffs, 0 upgd conss, 0 impls, 1041 clqs
(round 5, fast)       9589 del vars, 38521 del conss, 0 add conss, 10989 chg bounds, 1520 chg sides, 0 chg coeffs, 0 upgd conss, 0 impls, 1041 clqs
(round 6, fast)       13122 del vars, 39160 del conss, 0 add conss, 10989 chg bounds, 1520 chg sides, 0 chg coeffs, 0 upgd conss, 0 impls, 1041 clqs
(round 7, fast)       13761 del vars, 39160 del conss, 0 add conss, 10989 chg bounds, 1520 chg sides, 0 chg coeffs, 0 upgd conss, 0 impls, 1041 clqs
   (0.3s) running MILP presolver
   (0.4s) MILP presolver (3 rounds): 881 aggregations, 2547 fixings, 0 bound changes
(round 8, medium)     17189 del vars, 41082 del conss, 1041 add conss, 10989 chg bounds, 1520 chg sides, 0 chg coeffs, 0 upgd conss, 0 impls, 1041 clqs
(round 9, exhaustive) 17189 del vars, 41082 del conss, 1041 add conss, 10989 chg bounds, 1520 chg sides, 0 chg coeffs, 1041 upgd conss, 0 impls, 1041 clqs
   (0.4s) probing: 51/177 (28.8%) - 0 fixings, 0 aggregations, 0 implications, 0 bound changes
   (0.4s) probing aborted: 50/50 successive totally useless probings
   (0.4s) symmetry computation started: requiring (bin +, int -, cont +), (fixed: bin -, int +, cont -)
   (0.4s) no symmetry present
presolving (10 rounds: 10 fast, 3 medium, 2 exhaustive):
 17189 deleted vars, 41082 deleted constraints, 1041 added constraints, 10989 tightened bounds, 0 added holes, 1520 changed sides, 0 changed coefficients
 0 implications, 1041 cliques
presolved problem has 177 variables (177 bin, 0 int, 0 impl, 0 cont) and 1041 constraints
   1041 constraints of type <setppc>
transformed objective value is always integral (scale: 1)
Presolving Time: 0.29

 time | node  | left  |LP iter|LP it/n|mem/heur|mdpt |vars |cons |rows |cuts |sepa|confs|strbr|  dualbound   | primalbound  |  gap   | compl. 
t 0.4s|     1 |     0 |     0 |     - | trivial|   0 | 177 |1041 |   0 |   0 |  0 |   0 |   0 | 8.134000e+03 | 0.000000e+00 |    Inf | unknown
p 0.4s|     1 |     0 |     0 |     - |  clique|   0 | 177 |1041 |1041 |   0 |  0 |   0 |   0 | 8.134000e+03 | 1.614000e+03 | 403.97%| unknown
p 0.4s|     1 |     0 |     0 |     - |   locks|   0 | 177 |1041 |1041 |   0 |  0 |   0 |   0 | 8.134000e+03 | 1.628000e+03 | 399.63%| unknown
i 0.4s|     1 |     0 |     0 |     - |  oneopt|   0 | 177 |1041 |1041 |   0 |  0 |   0 |   0 | 8.134000e+03 | 1.741000e+03 | 367.20%| unknown
  0.4s|     1 |     0 |   620 |     - |    82M |   0 | 177 |1041 |1041 |   0 |  0 |   0 |   0 | 2.738928e+03 | 1.741000e+03 |  57.32%| unknown
  0.5s|     1 |     0 |   672 |     - |    83M |   0 | 177 |1041 |1042 |   1 |  1 |   0 |   0 | 2.734213e+03 | 1.741000e+03 |  57.05%| unknown
  0.6s|     1 |     0 |   770 |     - |    84M |   0 | 177 |1041 |1044 |   3 |  2 |   0 |   0 | 2.724840e+03 | 1.741000e+03 |  56.51%| unknown
  0.6s|     1 |     0 |   827 |     - |    85M |   0 | 177 |1041 |1045 |   4 |  3 |   0 |   0 | 2.722724e+03 | 1.741000e+03 |  56.39%| unknown
  0.7s|     1 |     0 |   922 |     - |    86M |   0 | 177 |1041 |1047 |   6 |  4 |   0 |   0 | 2.717520e+03 | 1.741000e+03 |  56.09%| unknown
  0.8s|     1 |     0 |  1018 |     - |    88M |   0 | 177 |1041 |1049 |   8 |  5 |   0 |   0 | 2.712983e+03 | 1.741000e+03 |  55.83%| unknown
  0.8s|     1 |     0 |  1121 |     - |    88M |   0 | 177 |1041 |1051 |  10 |  6 |   0 |   0 | 2.708453e+03 | 1.741000e+03 |  55.57%| unknown
  0.9s|     1 |     0 |  1247 |     - |    90M |   0 | 177 |1041 |1053 |  12 |  7 |   0 |   0 | 2.703503e+03 | 1.741000e+03 |  55.28%| unknown
  1.0s|     1 |     0 |  1355 |     - |    91M |   0 | 177 |1041 |1055 |  14 |  8 |   0 |   0 | 2.700912e+03 | 1.741000e+03 |  55.14%| unknown
  1.1s|     1 |     0 |  1428 |     - |    92M |   0 | 177 |1041 |1056 |  15 |  9 |   0 |   0 | 2.699063e+03 | 1.741000e+03 |  55.03%| unknown
  1.2s|     1 |     0 |  1495 |     - |    93M |   0 | 177 |1041 |1057 |  16 | 10 |   0 |   0 | 2.697604e+03 | 1.741000e+03 |  54.95%| unknown
 time | node  | left  |LP iter|LP it/n|mem/heur|mdpt |vars |cons |rows |cuts |sepa|confs|strbr|  dualbound   | primalbound  |  gap   | compl. 
  1.2s|     1 |     0 |  1580 |     - |    93M |   0 | 177 |1041 |1059 |  18 | 11 |   0 |   0 | 2.695883e+03 | 1.741000e+03 |  54.85%| unknown
  1.2s|     1 |     0 |  1643 |     - |    93M |   0 | 177 |1041 |1061 |  20 | 12 |   0 |   0 | 2.694403e+03 | 1.741000e+03 |  54.76%| unknown
  1.2s|     1 |     0 |  1721 |     - |    93M |   0 | 177 |1041 |1064 |  23 | 13 |   0 |   0 | 2.691791e+03 | 1.741000e+03 |  54.61%| unknown
  1.3s|     1 |     0 |  1786 |     - |    93M |   0 | 177 |1041 |1065 |  24 | 14 |   0 |   0 | 2.689896e+03 | 1.741000e+03 |  54.50%| unknown
  1.3s|     1 |     0 |  1827 |     - |    94M |   0 | 177 |1041 |1066 |  25 | 15 |   0 |   0 | 2.689040e+03 | 1.741000e+03 |  54.45%| unknown
  1.3s|     1 |     0 |  1878 |     - |    94M |   0 | 177 |1041 |1067 |  26 | 16 |   0 |   0 | 2.687442e+03 | 1.741000e+03 |  54.36%| unknown
d 1.4s|     1 |     0 |  2696 |     - |farkasdi|   0 | 177 |1041 |1067 |   0 | 18 |   0 |   0 | 2.687442e+03 | 1.933000e+03 |  39.03%| unknown
  1.4s|     1 |     0 |  2696 |     - |    94M |   0 | 177 |1041 |1067 |  26 | 18 |   0 |   0 | 2.687442e+03 | 1.933000e+03 |  39.03%| unknown
  2.2s|     1 |     2 |  2696 |     - |    94M |   0 | 177 |1041 |1067 |  26 | 20 |   0 |  20 | 2.656602e+03 | 1.933000e+03 |  37.43%| unknown
* 4.1s|    14 |     7 |  4014 | 164.3 |    LP  |  10 | 177 |1041 |1064 |  31 |  3 |   0 | 244 | 2.656602e+03 | 1.943000e+03 |  36.73%|   2.11%
* 4.3s|    15 |     6 |  4062 | 156.0 |    LP  |  10 | 177 |1041 |1069 |  36 |  5 |   0 | 244 | 2.656602e+03 | 1.945000e+03 |  36.59%|   2.14%
* 6.6s|    32 |    14 |  5907 | 130.0 |strongbr|  10 | 177 |1041 |1059 |  36 |  1 |   0 | 422 | 2.620444e+03 | 2.026000e+03 |  29.34%|   3.59%
* 6.6s|    32 |    14 |  5931 | 130.7 |strongbr|  10 | 177 |1041 |1059 |  36 |  2 |   0 | 430 | 2.620444e+03 | 2.034000e+03 |  28.83%|   3.59%
* 7.0s|    51 |    15 |  6608 |  94.6 |    LP  |  10 | 177 |1042 |1060 |  40 |  2 |   1 | 474 | 2.620444e+03 | 2.051000e+03 |  27.76%|   6.25%
  9.1s|   100 |    18 |  9730 |  79.3 |    98M |  14 | 177 |1046 |1059 |  82 |  0 |   5 | 553 | 2.612861e+03 | 2.051000e+03 |  27.39%|  11.06%
 time | node  | left  |LP iter|LP it/n|mem/heur|mdpt |vars |cons |rows |cuts |sepa|confs|strbr|  dualbound   | primalbound  |  gap   | compl. 
 11.6s|   200 |    28 | 15824 |  70.1 |    99M |  17 | 177 |1057 |1078 | 121 |  0 |  16 | 617 | 2.560533e+03 | 2.051000e+03 |  24.84%|  13.28%
*12.2s|   225 |    29 | 16809 |  66.7 |    LP  |  17 | 177 |1058 |1077 | 135 |  1 |  17 | 619 | 2.560533e+03 | 2.058000e+03 |  24.42%|  13.61%
*12.3s|   245 |    31 | 17740 |  65.0 |    LP  |  17 | 177 |1058 |1077 | 135 |  1 |  17 | 621 | 2.560533e+03 | 2.062000e+03 |  24.18%|  14.51%
*12.6s|   267 |    35 | 18943 |  64.2 |    LP  |  17 | 177 |1059 |1088 | 149 |  1 |  18 | 623 | 2.560533e+03 | 2.063000e+03 |  24.12%|  15.72%
*12.6s|   269 |    31 | 18955 |  63.7 |    LP  |  17 | 177 |1059 |1088 | 149 |  1 |  18 | 623 | 2.560533e+03 | 2.113000e+03 |  21.18%|  16.07%
 13.2s|   300 |    32 | 20561 |  62.5 |   102M |  17 | 177 |1059 |1089 | 166 |  0 |  18 | 634 | 2.560533e+03 | 2.113000e+03 |  21.18%|  17.42%
 17.0s|   400 |    36 | 27156 |  63.4 |   103M |  17 | 177 |1062 |1073 | 239 |  1 |  21 | 651 | 2.549025e+03 | 2.113000e+03 |  20.64%|  21.84%
*18.7s|   445 |    33 | 30055 |  63.5 |    LP  |  17 | 177 |1063 |1072 | 282 |  1 |  22 | 655 | 2.549025e+03 | 2.134000e+03 |  19.45%|  24.34%
 20.8s|   500 |    34 | 33692 |  63.8 |   105M |  17 | 177 |1063 |1084 | 333 |  1 |  22 | 657 | 2.547776e+03 | 2.134000e+03 |  19.39%|  26.11%
 22.8s|   600 |    36 | 39838 |  63.4 |   106M |  17 | 177 |1064 |1070 | 376 |  1 |  23 | 674 | 2.541478e+03 | 2.134000e+03 |  19.09%|  28.04%
 26.7s|   700 |    38 | 46851 |  64.3 |   106M |  17 | 177 |1068 |1078 | 477 |  0 |  27 | 679 | 2.526412e+03 | 2.134000e+03 |  18.39%|  30.70%
 28.1s|   800 |    40 | 52611 |  63.5 |   106M |  19 | 177 |1078 |1077 | 521 |  0 |  37 | 709 | 2.504461e+03 | 2.134000e+03 |  17.36%|  32.83%
 31.4s|   900 |    54 | 62555 |  67.5 |   112M |  19 | 177 |1100 |1092 | 620 |  0 |  59 | 771 | 2.482638e+03 | 2.134000e+03 |  16.34%|  36.01%
 33.9s|  1000 |    64 | 70385 |  68.6 |   113M |  19 | 177 |1106 |1095 | 717 |  8 |  65 | 776 | 2.465953e+03 | 2.134000e+03 |  15.56%|  38.67%
*36.3s|  1066 |    68 | 76216 |  69.8 |    LP  |  19 | 177 |1094 |1082 | 800 |  1 |  70 | 782 | 2.454370e+03 | 2.156000e+03 |  13.84%|  40.00%
 time | node  | left  |LP iter|LP it/n|mem/heur|mdpt |vars |cons |rows |cuts |sepa|confs|strbr|  dualbound   | primalbound  |  gap   | compl. 
 36.4s|  1100 |    66 | 77304 |  68.6 |   116M |  19 | 177 |1094 |1082 | 800 |  0 |  70 | 782 | 2.454370e+03 | 2.156000e+03 |  13.84%|  40.78%
 36.9s|  1200 |    70 | 82284 |  67.1 |   116M |  22 | 177 |1098 |1068 | 801 |  0 |  74 | 793 | 2.451266e+03 | 2.156000e+03 |  13.70%|  42.38%
*38.3s|  1272 |    70 | 87113 |  67.1 |strongbr|  22 | 177 |1102 |1080 | 832 |  1 |  78 | 807 | 2.450094e+03 | 2.162000e+03 |  13.33%|  43.57%
*38.3s|  1277 |    66 | 87247 |  66.9 |strongbr|  22 | 177 |1102 |1080 | 832 |  1 |  79 | 809 | 2.450094e+03 | 2.176000e+03 |  12.60%|  43.77%
*38.3s|  1280 |    67 | 87404 |  66.9 |    LP  |  22 | 177 |1104 |1080 | 832 |  1 |  81 | 814 | 2.450094e+03 | 2.177000e+03 |  12.54%|  43.88%
 38.6s|  1300 |    67 | 88630 |  66.8 |   116M |  22 | 177 |1105 |1085 | 845 |  1 |  82 | 816 | 2.450094e+03 | 2.177000e+03 |  12.54%|  44.40%
 41.1s|  1400 |    63 | 97593 |  68.4 |   117M |  22 | 177 |1133 |1084 | 925 |  0 | 110 | 869 | 2.449478e+03 | 2.177000e+03 |  12.52%|  47.75%
 43.6s|  1500 |    65 |104327 |  68.3 |   117M |  22 | 177 |1136 |1084 |1022 |  0 | 113 | 887 | 2.444987e+03 | 2.177000e+03 |  12.31%|  50.86%
 45.8s|  1600 |    69 |113848 |  70.0 |   118M |  22 | 177 |1144 |1089 |1137 |  1 | 121 | 903 | 2.424656e+03 | 2.177000e+03 |  11.38%|  53.64%
 48.3s|  1700 |    65 |122161 |  70.8 |   120M |  22 | 177 |1149 |1091 |1242 |  0 | 126 | 911 | 2.421378e+03 | 2.177000e+03 |  11.23%|  57.27%
 49.9s|  1800 |    63 |129885 |  71.2 |   120M |  22 | 177 |1154 |1083 |1315 |  1 | 131 | 921 | 2.420000e+03 | 2.177000e+03 |  11.16%|  62.04%
 50.8s|  1900 |    61 |136429 |  70.9 |   120M |  22 | 177 |1159 |1102 |1340 |  1 | 136 | 932 | 2.410762e+03 | 2.177000e+03 |  10.74%|  65.37%
 52.2s|  2000 |    65 |144113 |  71.2 |   120M |  22 | 177 |1163 |1106 |1406 |  3 | 140 | 937 | 2.399507e+03 | 2.177000e+03 |  10.22%|  66.73%
 54.2s|  2100 |    63 |152373 |  71.7 |   120M |  22 | 177 |1165 |1069 |1474 |  1 | 142 | 941 | 2.389336e+03 | 2.177000e+03 |   9.75%|  70.26%
 56.0s|  2200 |    63 |161667 |  72.7 |   122M |  22 | 177 |1169 |1074 |1545 |  1 | 146 | 945 | 2.370139e+03 | 2.177000e+03 |   8.87%|  72.47%
 time | node  | left  |LP iter|LP it/n|mem/heur|mdpt |vars |cons |rows |cuts |sepa|confs|strbr|  dualbound   | primalbound  |  gap   | compl. 
 57.8s|  2300 |    55 |169743 |  73.0 |   122M |  22 | 177 |1174 |1098 |1611 |  1 | 152 | 956 | 2.362339e+03 | 2.177000e+03 |   8.51%|  75.26%
 59.2s|  2400 |    47 |175701 |  72.5 |   122M |  22 | 177 |1175 |1093 |1659 |  0 | 153 | 974 | 2.355877e+03 | 2.177000e+03 |   8.22%|  81.13%
 60.0s|  2500 |    39 |181783 |  72.0 |   122M |  22 | 177 |1178 |1092 |1674 |  1 | 156 | 983 | 2.355877e+03 | 2.177000e+03 |   8.22%|  85.08%
 60.7s|  2600 |    37 |188814 |  71.9 |   122M |  22 | 177 |1182 |1063 |1679 |  0 | 160 |1003 | 2.348466e+03 | 2.177000e+03 |   7.88%|  88.15%
 62.0s|  2700 |    31 |195976 |  71.9 |   122M |  22 | 177 |1192 |1095 |1692 |  1 | 170 |1037 | 2.348466e+03 | 2.177000e+03 |   7.88%|  90.20%
 62.7s|  2800 |    17 |202774 |  71.8 |   122M |  25 | 177 |1194 |1082 |1714 |  0 | 172 |1043 | 2.348466e+03 | 2.177000e+03 |   7.88%|  93.02%

SCIP Status        : problem is solved [optimal solution found]
Solving Time (sec) : 64.08
Solving Nodes      : 2859
Primal Bound       : +2.17700000000000e+03 (475 solutions)
Dual Bound         : +2.17700000000000e+03
Gap                : 0.00 %
Solve Status: optimal
Solve Time: 64.10 seconds
